NAME : ro16
TYPE : TSP
COMMENT : Comentariu
DIMENSION : 16
EDGE_WEIGHT_TYPE : EUC_2D
NODE_COORD_SECTION
1 27.58 47.16
2 21.23 45.76
3 23.61 46.78
4 28.63 44.18
5 23.8 44.32
6 28.04 45.44
7 25.6 45.65
8 26.02 44.94
9 27.97 45.27
10 21.94 47.05
11 26.91 46.57
12 21.31 46.19
13 24.88 44.86
14 24.15 45.79
15 24.56 46.54
16 23.58 47.66
EOF